N = 8;

ACTORES = { Actor1 , Actor2 , Actor3 , Actor4 , Actor5 , Actor6 , Actor7 , Actor8 };

M = 10;

Escenas = [| 
  1 , 1 , 1 , 1 , 0 , 1 , 0 , 1 , 0 , 1 , 10
| 1 , 1 , 1 , 0 , 0 , 0 , 1 , 1 , 0 , 1 , 4
| 0 , 1 , 1 , 0 , 1 , 0 , 1 , 1 , 0 , 0 , 5
| 0 , 0 , 0 , 0 , 0 , 0 , 0 , 0 , 0 , 1 , 5
| 0 , 1 , 0 , 0 , 0 , 0 , 1 , 1 , 0 , 0 , 5
| 0 , 0 , 0 , 0 , 0 , 0 , 0 , 0 , 0 , 1 , 40
| 0 , 0 , 0 , 0 , 1 , 0 , 1 , 1 , 0 , 0 , 4
| 0 , 0 , 0 , 0 , 0 , 1 , 1 , 1 , 1 , 0 , 20|];

Duracion =
[ 2 , 1 , 1 , 1 , 1 , 3 , 1 , 1 , 1 , 2 ];
